NAME : problems/40-tsp/instance-7.tsp
COMMENT : No Comment
TYPE : TSP
DIMENSION: 40
EDGE_WEIGHT_TYPE : EUC_2D
NODE_COORD_SECTION
1 349 92 
2 5754 833 
3 9053 8694 
4 8939 9710 
5 8674 8399 
6 346 2573 
7 6048 2344 
8 144 3693 
9 8933 892 
10 2406 1582 
11 1681 1490 
12 7731 2815 
13 3681 5366 
14 1975 6193 
15 7325 3945 
16 8921 7507 
17 4725 7229 
18 8572 8323 
19 3930 7330 
20 4042 1519 
21 993 966 
22 2101 5797 
23 8869 1595 
24 4009 5812 
25 1196 5696 
26 5648 7369 
27 8688 7017 
28 619 4327 
29 9477 7487 
30 7770 366 
31 5153 7437 
32 5021 8233 
33 6365 3040 
34 3121 8949 
35 3088 3168 
36 1971 1324 
37 5117 355 
38 9946 2311 
39 4262 3375 
40 9363 235 
EOF
